NAME : random72.664.tour
COMMENT : Length = 664
COMMENT : Found by LKH [Keld Helsgaun] Tue May  7 16:07:27 2024
TYPE : TOUR
DIMENSION : 72
TOUR_SECTION
1
64
55
6
33
17
68
23
36
65
46
40
28
62
66
48
56
47
54
21
12
13
25
16
71
32
59
19
44
4
49
34
50
7
11
57
18
42
27
14
22
30
45
26
37
67
24
41
2
63
29
61
72
53
35
10
58
9
51
52
15
20
8
3
60
38
69
43
31
39
5
70
-1
EOF
